170959
4,54,51,64,30,12,87,68,5,39,55,19,15,63,89,16,20,21,61,24,44,71,81,50,99,34,74,31,62,52,83,6,48,36,38,72,47,84,35,70,53,94,66,40,103,37,100,2,77,93,69,17,95,59,90,78,42,23,101,73,13,46,60,102,3,14,32,1,85,45,76,80,41,18,67,98,49,25,33,82,56,79,88,22,91,8,105,96,7,97,28,29,11,92,75,57,0,86,27,26,9,43,58,65,104,10